Name: 1',3'-Bis[1,2-dilinoleoyl-sn-glycero-3-phospho]-sn-glycerol
Notes: Consensus spectrum; Water/isopropanol/Formic acid; added_Vial_ID=4487
Precursor_type: [M+NH4]+
Spectrum_type: MS2
PrecursorMZ: 1467.0061
Instrument_type: Q-TOF
Instrument: Agilent QTOF 6530
Sample_inlet: direct flow injection
Ionization: ESI
In-source_voltage: 150
Collision_gas: N2
Collision_energy: 10
Ion_mode: P
InChIKey: LSHJMDWWJIYXEM-XGJIDDIWSA-N
Synon: Heart CA, main component
Synon: 8,11-Octadecadienoic acid, 5,8,11-trihydroxy-5,11-dioxido-4,6,10,12-tetraoxa-5,11-diphosphapentadecane-1,2,14,15-tetrayl ester
Formula: C81H142O17P2
MW: 1448
ExactMass: 1448.97223
CASNO: 746600942
NISTNO: 1035167
ID: 2
Comment: NIST Mass Spectrometry Data Center
Num peaks: 10
597.50 50.95
599.50 683.32
1449.98 999.00
1450.98 43.56
1465.98 46.35
1466.00 50.65
1466.02 56.94
1467.01 616.18
1467.90 45.05
1468.00 57.34


Name: 1',3'-Bis[1,2-dilinoleoyl-sn-glycero-3-phospho]-sn-glycerol
Notes: Consensus spectrum; Water/isopropanol/Formic acid; added_Vial_ID=4487
Precursor_type: [M+NH4]+
Spectrum_type: MS2
PrecursorMZ: 1467.0061
Instrument_type: Q-TOF
Instrument: Agilent QTOF 6530
Sample_inlet: direct flow injection
Ionization: ESI
In-source_voltage: 150
Collision_gas: N2
Collision_energy: 14
Ion_mode: P
InChIKey: LSHJMDWWJIYXEM-XGJIDDIWSA-N
Synon: Heart CA, main component
Synon: 8,11-Octadecadienoic acid, 5,8,11-trihydroxy-5,11-dioxido-4,6,10,12-tetraoxa-5,11-diphosphapentadecane-1,2,14,15-tetrayl ester
Formula: C81H142O17P2
MW: 1448
ExactMass: 1448.97223
CASNO: 746600942
NISTNO: 1035168
ID: 3
Comment: NIST Mass Spectrometry Data Center
Num peaks: 5
537.39 55.94
599.50 999.00
600.51 42.26
1449.98 853.85
1467.00 139.16


Name: 1',3'-Bis[1,2-dilinoleoyl-sn-glycero-3-phospho]-sn-glycerol
Notes: Consensus spectrum; Water/isopropanol/Formic acid; added_Vial_ID=4487
Precursor_type: [M+NH4]+
Spectrum_type: MS2
PrecursorMZ: 1467.0061
Instrument_type: Q-TOF
Instrument: Agilent QTOF 6530
Sample_inlet: direct flow injection
Ionization: ESI
In-source_voltage: 150
Collision_gas: N2
Collision_energy: 16
Ion_mode: P
InChIKey: LSHJMDWWJIYXEM-XGJIDDIWSA-N
Synon: Heart CA, main component
Synon: 8,11-Octadecadienoic acid, 5,8,11-trihydroxy-5,11-dioxido-4,6,10,12-tetraoxa-5,11-diphosphapentadecane-1,2,14,15-tetrayl ester
Formula: C81H142O17P2
MW: 1448
ExactMass: 1448.97223
CASNO: 746600942
NISTNO: 1035169
ID: 4
Comment: NIST Mass Spectrometry Data Center
Num peaks: 8
597.46 41.86
598.50 45.15
599.51 999.00
600.49 43.86
1448.92 41.86
1449.97 452.85
1449.99 185.91
1450.98 58.94
